%Mem=40MW
%Chk=hcn.chk
# HF/6-31G(d) Opt freq MaxDisk=1GW
 
Hydrogen cyanide: geometry optimization

0 1
 c
 n   1 nc2     
 h   1 hc3        2 hcn3      

nc2         1.15
hc3         1.07
hcn3        180.000

