%Chk=butadiene.chk
#n B3LYP/6-31G(d) SP SCF=Tight geom=check

 Title

0 1

