#n B3LYP/6-31G(d) Opt

 O2plus

1 2
O         -0.67613        0.62549        0.00000
O         -1.94050        0.83738        0.00000

