%NProcShared=2
%Chk=guan_opt.chk
#n RHF/STO-3G Opt freq

 guan_opt

1 1
C         -1.86319       -0.23097        1.07128
N         -2.50935        0.57240        0.34633
H         -2.83788        0.27965       -0.58553
N         -2.47396       -0.98551        1.87508
H         -2.78916       -1.91856        1.57165
N         -0.60626       -0.27980        0.99241
H         -0.02590        0.32397        1.59295
H         -2.71178        1.52530        0.68251
H         -2.66064       -0.67247        2.83902
H         -0.15380       -0.92370        0.32707

