%NProcShared=8
#n B3LYP/6-31G(d) Opt Freq

 geomopt

0 1
C         -3.09575       -0.27031       -0.77028
C         -2.15182        0.42040        1.02968
C         -1.23686       -0.28729        0.28383
C          0.19464       -0.55063        0.64624
C          2.59210       -0.35656       -0.02854
O          2.92874       -1.65802        0.05991
N          1.02961        1.49102       -0.50107
N         -3.31484        0.42683        0.36140
H         -3.84729       -0.44692       -1.52827
H         -4.20748        0.87951        0.65789
H         -1.98673        0.89695        1.98722
H          0.32689       -1.65220        0.71320
H          0.41639       -0.11270        1.64461
H          0.95441       -0.42239       -1.39098
H          0.06436        1.74100       -0.81495
H          1.69794        1.86460       -1.21404
N         -1.82646       -0.72357       -0.84714
C          1.17383        0.02945       -0.39741
O          3.44009        0.49742        0.18119
H          1.21691        1.94758        0.42175

